robust/generate/spp_dkp_Lefebvre_et_al_2026/src/shortest_path_7_5.kp
47
160

[0.53 4.59 3.43 1.65 3.33 3.76 3.04 1.95 3.32 1.16 1.2 0.11 0.46 1.41 3.02 1.52 0.87 4.32 1.27 1.29 4.49 0.6 3.52 0.02 4.03 3.28 2.6 4.4 2.41 0.84 2.53 1.38 0.05 4.16]

[32 49 89 93 55 67 24 99 33 64 94 84 10 60 44 30 82 13 59 25 88 50 12 10 41 66 73 81 17 6 85 79 6 45]
